(declare-fun a64 () (Array (_ BitVec 1) (_ BitVec 13)))
(declare-fun a65 () (Array (_ BitVec 10) (_ BitVec 9)))
(assert
(let (($e11 (_ bv3 6)))
(let (($e22 (_ bv0 8)))
(let (($e31 (_ bv3 3)))
(let (($e46 (_ bv511 13)))
(let (($e453 ((_ extract 11 2) $e46 )))
(let (($e454 (select a65   $e453)))
(let (($e693 false                  ))
(let (($e694 (select a64  $e693)))
(let (($e695      (= $e46  $e694)         ))
(let (($e698 (concat $e22 $e695)))
(let (($e701 (bvand        $e698         $e454 )))
(let (($e702 (concat $e31 $e11)))
(let (($e703 (bvand $e702 $e701)))
             (ite        $e695  $e701 $e703)
                                                                                                                                                                                                                                                                                                                                                                                                                                                                                                                                                                                                                                                                                                                                                                                                                                                                                                                                                                                                                                                                                                                                                                                                                                                                                                                                                                                                                                                                                                                                                                                                                                                                                                                                                                                                                                                                                                                                                                                                                                                                                                                                                                                                                                                                                                                                                                                                                                                                                                                                                                                                                                                                                                                                                                                                                                                                                                                                                                                                                                                                                                                                )))  )  )))                                                                                                                                                                                                                                              ))                                                                                                                                                                                                                                                                                                                                                                                                        )              )        )          )          )
